NAME: cluster_7
TYPE: TSP
DIMENSION: 12
EDGE_WEIGHT_TYPE: EUC_2D
NODE_COORD_SECTION
1 12000.00 16000.00
2 17322.55 24510.20
3 16023.82 26176.68
4 17200.38 23273.97
5 15535.13 20581.18
6 15128.57 19218.33
7 12343.25 26181.20
8 14921.00 25308.45
9 13600.11 20345.08
10 12842.12 22669.89
11 15431.59 27268.15
12 18103.44 25818.33
EOF
